16
3 15
3 11
3 7
3 14
3 9
3 5
3 12
3 8
3 4
15 7
15 0
15 9
15 6
15 13
15 5
15 14
15 4
6 9
6 14
6 7
6 10
6 11
6 12
6 4
6 13
9 8
9 11
9 14
9 10
9 0
9 12
8 13
8 4
8 2
8 5
8 0
8 12
8 1
13 5
13 12
13 4
13 10
13 0
13 7
10 11
10 7
10 1
10 4
10 2
10 5
11 14
11 1
11 0
11 5
11 2
4 0
4 5
4 1
7 12
7 2
7 5
7 1
12 2
12 14
12 1
0 14
0 1
0 2
14 1
14 2
2 5
2 1
